
Gurobi 6.5.2 (win64) logging started 07/23/16 03:52:19


Gurobi 6.5.2 (win64) logging started 07/23/16 03:52:19

Optimize a model with 32801 rows, 1608 columns and 70204 nonzeros
Coefficient statistics:
  Matrix range    [4e-06, 1e+03]
  Objective range [1e+00, 1e+00]
  Bounds range    [1e+00, 1e+00]
  RHS range       [1e+00, 1e+03]
Found heuristic solution: objective 405.452
Presolve removed 32774 rows and 1582 columns
Presolve time: 0.01s
Presolved: 27 rows, 26 columns, 82 nonzeros
Found heuristic solution: objective 273.1905186
Variable types: 26 continuous, 0 integer (0 binary)

Root relaxation: objective 2.114249e+02, 19 iterations, 0.00 seconds

    Nodes    |    Current Node    |     Objective Bounds      |     Work
 Expl Unexpl |  Obj  Depth IntInf | Incumbent    BestBd   Gap | It/Node Time

*    0     0               0     211.4249102  211.42491  0.00%     -    0s

Explored 0 nodes (19 simplex iterations) in 0.02 seconds
Thread count was 8 (of 8 available processors)

Optimal solution found (tolerance 1.00e-04)
Best objective 2.114249101669e+02, best bound 2.114249101669e+02, gap 0.0%

Wrote requested result file 'H2\instance28\\Results28EC_Sol6.lp'

